CMPL model generation - running

CMPL version: 1.11.0
Authors: Thomas Schleiff, Mike Steglich
Distributed under the GPLv3 

create model instance ...
write model instance ...
CMPL model generation - finished

Solver - running


Welcome to IBM(R) ILOG(R) CPLEX(R) Interactive Optimizer 12.7.1.0
  with Simplex, Mixed Integer & Barrier Optimizers
5725-A06 5725-A29 5724-Y48 5724-Y49 5724-Y54 5724-Y55 5655-Y21
Copyright IBM Corp. 1988, 2017.  All Rights Reserved.

Type 'help' for a list of available commands.
Type 'help' followed by a command name for more
information on commands.

CPLEX> Specified objective sense: MINIMIZE
Selected objective  name:  line[1]
Selected RHS        name:  RHS
Selected bound      name:  BOUND
Problem '/tmp/cmpl.T23358.mps' read.
Read time = 0.05 sec. (8.16 ticks)
CPLEX> CPXPARAM_Read_APIEncoding                        "UTF-8"
Tried aggregator 3 times.
MIP Presolve eliminated 19321 rows and 30847 columns.
MIP Presolve modified 340 coefficients.
Aggregator did 580 substitutions.
Reduced MIP has 2454 rows, 3166 columns, and 9262 nonzeros.
Reduced MIP has 2998 binaries, 0 generals, 0 SOSs, and 0 indicators.
Presolve time = 0.05 sec. (40.19 ticks)
Found incumbent of value 335.104913 after 0.07 sec. (52.33 ticks)
Probing fixed 5 vars, tightened 0 bounds.
Probing time = 0.01 sec. (4.00 ticks)
Tried aggregator 1 time.
MIP Presolve eliminated 0 rows and 5 columns.
MIP Presolve modified 18 coefficients.
Reduced MIP has 2454 rows, 3161 columns, and 9252 nonzeros.
Reduced MIP has 3161 binaries, 0 generals, 0 SOSs, and 0 indicators.
Presolve time = 0.01 sec. (7.94 ticks)
Probing time = 0.01 sec. (2.67 ticks)
Clique table members: 5204.
MIP emphasis: balance optimality and feasibility.
MIP search method: dynamic search.
Parallel mode: none, using 1 thread.
Root relaxation solution time = 0.00 sec. (4.18 ticks)

        Nodes                                         Cuts/
   Node  Left     Objective  IInf  Best Integer    Best Bound    ItCnt     Gap

*     0+    0                          335.1049      -51.9458           115.50%
      0     0        8.7470    26      335.1049        8.7470       60   97.39%
*     0+    0                           61.8267        8.7470            85.85%
*     0+    0                            9.4898        8.7470             7.83%
      0     0        cutoff              9.4898                     60    0.00%
Elapsed time = 0.12 sec. (88.19 ticks, tree = 0.01 MB, solutions = 3)

Root node processing (before b&c):
  Real time             =    0.12 sec. (89.67 ticks)
Sequential b&c:
  Real time             =    0.00 sec. (0.00 ticks)
                          ------------
Total (root+branch&cut) =    0.12 sec. (89.67 ticks)

Solution pool: 3 solutions saved.

MIP - Integer optimal solution:  Objective =  9.4898280000e+00
Solution time =    0.12 sec.  Iterations = 60  Nodes = 0
Deterministic time = 89.77 ticks  (722.72 ticks/sec)

CPLEX> Incumbent solution written to file '/tmp/cmpl.T23358.gsol'.
CPLEX> 
CMPL: Time used for model generation: 0 seconds
CMPL: Time used for solving the model: 1 seconds


Solution written to ASCII file: results/output_generated_conf_0/2016-01-04-4/fair-nonlinear.sol

Solver - finished
